17	4
11	12	12	8	
0	0	0	0	0	3	2	3	4	
5	3	0	0	0	3	5	8	10	
9	0	5	3	6	1	15	
2	0	0	4	0	2	10	14	
10	2	0	1	0	2	6	16	
250	4	6	4	0	1	7	
25	0	0	0	6	3	9	11	12	
225	6	0	4	0	2	17	17	
200	2	8	5	0	3	17	17	17	
175	0	0	9	7	3	17	17	17	
125	9	0	3	0	3	13	17	17	
50	5	8	0	3	3	17	17	17	
4	1	0	5	1	3	17	17	17	
4	0	4	0	0	2	15	17	
1	9	5	0	0	2	16	17	
7	0	9	4	1	1	17	
0	0	0	0	0	0	
